
  32    4
  10   10   10   10

   0   0   0   0   0   5 2 7 9 15 24 
   6  10  10  10  10   1 3 
   1  10  10  10  10   1 4 
  10  10  10  10  10   1 5 
  10  10  10  10  10   1 6 
   8  10  10  10  10   1 8 
   4  10  10  10  10   1 8 
   1  10  10  10  10   1 10 
   8  10  10  10  10   1 10 
  10  10  10  10  10   1 11 
   5  10  10  10  10   1 12 
   3  10  10  10  10   1 13 
   4  10  10  10  10   1 14 
   3  10  10  10  10   1 16 
  10  10  10  10  10   1 16 
   8  10  10  10  10   2 28 17 
   3  10  10  10  10   1 18 
  10  10  10  10  10   1 19 
   6  10  10  10  10   2 31 20 
   3  10  10  10  10   1 21 
   6  10  10  10  10   1 22 
   8  10  10  10  10   1 23 
   1  10  10  10  10   1 25 
   4  10  10  10  10   2 31 27 
  10  10  10  10  10   1 26 
   3  10  10  10  10   1 27 
   5  10  10  10  10   1 29 
   4  10  10  10  10   1 29 
   7  10  10  10  10   1 30 
  10  10  10  10  10   1 32
  10  10  10  10  10   1 32
   0   0   0   0   0   0 
